(set-option :produce-models true)
(set-logic QF_LRA)
(set-info :notes | Strip-packing problem.|)
(declare-fun x0 () Real)
(declare-fun y0 () Real)
(declare-fun x1 () Real)
(declare-fun y1 () Real)
(declare-fun x2 () Real)
(declare-fun y2 () Real)
(declare-fun x3 () Real)
(declare-fun y3 () Real)
(declare-fun x4 () Real)
(declare-fun y4 () Real)
(declare-fun x5 () Real)
(declare-fun y5 () Real)
(declare-fun x6 () Real)
(declare-fun y6 () Real)
(declare-fun x7 () Real)
(declare-fun y7 () Real)
(declare-fun x8 () Real)
(declare-fun y8 () Real)
(declare-fun x9 () Real)
(declare-fun y9 () Real)
(declare-fun x10 () Real)
(declare-fun y10 () Real)
(declare-fun x11 () Real)
(declare-fun y11 () Real)
(declare-fun x12 () Real)
(declare-fun y12 () Real)
(declare-fun x13 () Real)
(declare-fun y13 () Real)
(declare-fun x14 () Real)
(declare-fun y14 () Real)
(declare-fun z () Real)
(declare-fun c () Real)
(assert (and (= c z) (and (>= x0 0) 
(and (>= y0 0) 
(and (>= x1 0) 
(and (>= y1 0) 
(and (>= x2 0) 
(and (>= y2 0) 
(and (>= x3 0) 
(and (>= y3 0) 
(and (>= x4 0) 
(and (>= y4 0) 
(and (>= x5 0) 
(and (>= y5 0) 
(and (>= x6 0) 
(and (>= y6 0) 
(and (>= x7 0) 
(and (>= y7 0) 
(and (>= x8 0) 
(and (>= y8 0) 
(and (>= x9 0) 
(and (>= y9 0) 
(and (>= x10 0) 
(and (>= y10 0) 
(and (>= x11 0) 
(and (>= y11 0) 
(and (>= x12 0) 
(and (>= y12 0) 
(and (>= x13 0) 
(and (>= y13 0) 
(and (>= x14 0) 
(and (>= y14 0) 
(and (>= z 0) 
(and (>= c 0) 
(and (<= (+ x0 0.5038994335) z) 
(and (<= 0.9474019576 y0) 
(and (<= y0 1.0) 
(and (<= x0 (- 4.5629368678 0.5038994335)) 
(and (>= x0 0) 
(and (<= (+ x1 0.3186473977) z) 
(and (<= 0.8827426891 y1) 
(and (<= y1 1.0) 
(and (<= x1 (- 4.5629368678 0.3186473977)) 
(and (>= x1 0) 
(and (<= (+ x2 0.0911714768) z) 
(and (<= 0.8134874405 y2) 
(and (<= y2 1.0) 
(and (<= x2 (- 4.5629368678 0.0911714768)) 
(and (>= x2 0) 
(and (<= (+ x3 0.1829961401) z) 
(and (<= 0.7227091456 y3) 
(and (<= y3 1.0) 
(and (<= x3 (- 4.5629368678 0.1829961401)) 
(and (>= x3 0) 
(and (<= (+ x4 0.6987055435) z) 
(and (<= 0.6907405815 y4) 
(and (<= y4 1.0) 
(and (<= x4 (- 4.5629368678 0.6987055435)) 
(and (>= x4 0) 
(and (<= (+ x5 0.4717337751) z) 
(and (<= 0.554745903 y5) 
(and (<= y5 1.0) 
(and (<= x5 (- 4.5629368678 0.4717337751)) 
(and (>= x5 0) 
(and (<= (+ x6 0.0720154545) z) 
(and (<= 0.4443920272 y6) 
(and (<= y6 1.0) 
(and (<= x6 (- 4.5629368678 0.0720154545)) 
(and (>= x6 0) 
(and (<= (+ x7 0.3482728906) z) 
(and (<= 0.3828827221 y7) 
(and (<= y7 1.0) 
(and (<= x7 (- 4.5629368678 0.3482728906)) 
(and (>= x7 0) 
(and (<= (+ x8 0.4296715769) z) 
(and (<= 0.3677670044 y8) 
(and (<= y8 1.0) 
(and (<= x8 (- 4.5629368678 0.4296715769)) 
(and (>= x8 0) 
(and (<= (+ x9 0.0564388434) z) 
(and (<= 0.3643801729 y9) 
(and (<= y9 1.0) 
(and (<= x9 (- 4.5629368678 0.0564388434)) 
(and (>= x9 0) 
(and (<= (+ x10 0.3924183036) z) 
(and (<= 0.2641453916 y10) 
(and (<= y10 1.0) 
(and (<= x10 (- 4.5629368678 0.3924183036)) 
(and (>= x10 0) 
(and (<= (+ x11 0.573858188) z) 
(and (<= 0.1534121314 y11) 
(and (<= y11 1.0) 
(and (<= x11 (- 4.5629368678 0.573858188)) 
(and (>= x11 0) 
(and (<= (+ x12 0.348140032) z) 
(and (<= 0.1091890444 y12) 
(and (<= y12 1.0) 
(and (<= x12 (- 4.5629368678 0.348140032)) 
(and (>= x12 0) 
(and (<= (+ x13 0.4966061613) z) 
(and (<= 0.0338020348 y13) 
(and (<= y13 1.0) 
(and (<= x13 (- 4.5629368678 0.4966061613)) 
(and (>= x13 0) 
(and (<= (+ x14 0.9439804456) z) 
(and (<= 0.0199775779 y14) 
(and (<= y14 1.0) 
(and (<= x14 (- 4.5629368678 0.9439804456)) 
(and (>= x14 0) 
(and (<= c 4.5629368678) 
(and (or (<= (+ x0 0.5038994335) x1) (or (<= (+ x1 0.3186473977) x0) (or (>= (- y0 0.9474019576) y1) (or (>= (- y1 0.8827426891) y0))))) 
(and (or (<= (+ x0 0.5038994335) x2) (or (<= (+ x2 0.0911714768) x0) (or (>= (- y0 0.9474019576) y2) (or (>= (- y2 0.8134874405) y0))))) 
(and (or (<= (+ x0 0.5038994335) x3) (or (<= (+ x3 0.1829961401) x0) (or (>= (- y0 0.9474019576) y3) (or (>= (- y3 0.7227091456) y0))))) 
(and (or (<= (+ x0 0.5038994335) x4) (or (<= (+ x4 0.6987055435) x0) (or (>= (- y0 0.9474019576) y4) (or (>= (- y4 0.6907405815) y0))))) 
(and (or (<= (+ x0 0.5038994335) x5) (or (<= (+ x5 0.4717337751) x0) (or (>= (- y0 0.9474019576) y5) (or (>= (- y5 0.554745903) y0))))) 
(and (or (<= (+ x0 0.5038994335) x6) (or (<= (+ x6 0.0720154545) x0) (or (>= (- y0 0.9474019576) y6) (or (>= (- y6 0.4443920272) y0))))) 
(and (or (<= (+ x0 0.5038994335) x7) (or (<= (+ x7 0.3482728906) x0) (or (>= (- y0 0.9474019576) y7) (or (>= (- y7 0.3828827221) y0))))) 
(and (or (<= (+ x0 0.5038994335) x8) (or (<= (+ x8 0.4296715769) x0) (or (>= (- y0 0.9474019576) y8) (or (>= (- y8 0.3677670044) y0))))) 
(and (or (<= (+ x0 0.5038994335) x9) (or (<= (+ x9 0.0564388434) x0) (or (>= (- y0 0.9474019576) y9) (or (>= (- y9 0.3643801729) y0))))) 
(and (or (<= (+ x0 0.5038994335) x10) (or (<= (+ x10 0.3924183036) x0) (or (>= (- y0 0.9474019576) y10) (or (>= (- y10 0.2641453916) y0))))) 
(and (or (<= (+ x0 0.5038994335) x11) (or (<= (+ x11 0.573858188) x0) (or (>= (- y0 0.9474019576) y11) (or (>= (- y11 0.1534121314) y0))))) 
(and (or (<= (+ x0 0.5038994335) x12) (or (<= (+ x12 0.348140032) x0) (or (>= (- y0 0.9474019576) y12) (or (>= (- y12 0.1091890444) y0))))) 
(and (or (<= (+ x0 0.5038994335) x13) (or (<= (+ x13 0.4966061613) x0) (or (>= (- y0 0.9474019576) y13) (or (>= (- y13 0.0338020348) y0))))) 
(and (or (<= (+ x0 0.5038994335) x14) (or (<= (+ x14 0.9439804456) x0) (or (>= (- y0 0.9474019576) y14) (or (>= (- y14 0.0199775779) y0))))) 
(and (or (<= (+ x1 0.3186473977) x2) (or (<= (+ x2 0.0911714768) x1) (or (>= (- y1 0.8827426891) y2) (or (>= (- y2 0.8134874405) y1))))) 
(and (or (<= (+ x1 0.3186473977) x3) (or (<= (+ x3 0.1829961401) x1) (or (>= (- y1 0.8827426891) y3) (or (>= (- y3 0.7227091456) y1))))) 
(and (or (<= (+ x1 0.3186473977) x4) (or (<= (+ x4 0.6987055435) x1) (or (>= (- y1 0.8827426891) y4) (or (>= (- y4 0.6907405815) y1))))) 
(and (or (<= (+ x1 0.3186473977) x5) (or (<= (+ x5 0.4717337751) x1) (or (>= (- y1 0.8827426891) y5) (or (>= (- y5 0.554745903) y1))))) 
(and (or (<= (+ x1 0.3186473977) x6) (or (<= (+ x6 0.0720154545) x1) (or (>= (- y1 0.8827426891) y6) (or (>= (- y6 0.4443920272) y1))))) 
(and (or (<= (+ x1 0.3186473977) x7) (or (<= (+ x7 0.3482728906) x1) (or (>= (- y1 0.8827426891) y7) (or (>= (- y7 0.3828827221) y1))))) 
(and (or (<= (+ x1 0.3186473977) x8) (or (<= (+ x8 0.4296715769) x1) (or (>= (- y1 0.8827426891) y8) (or (>= (- y8 0.3677670044) y1))))) 
(and (or (<= (+ x1 0.3186473977) x9) (or (<= (+ x9 0.0564388434) x1) (or (>= (- y1 0.8827426891) y9) (or (>= (- y9 0.3643801729) y1))))) 
(and (or (<= (+ x1 0.3186473977) x10) (or (<= (+ x10 0.3924183036) x1) (or (>= (- y1 0.8827426891) y10) (or (>= (- y10 0.2641453916) y1))))) 
(and (or (<= (+ x1 0.3186473977) x11) (or (<= (+ x11 0.573858188) x1) (or (>= (- y1 0.8827426891) y11) (or (>= (- y11 0.1534121314) y1))))) 
(and (or (<= (+ x1 0.3186473977) x12) (or (<= (+ x12 0.348140032) x1) (or (>= (- y1 0.8827426891) y12) (or (>= (- y12 0.1091890444) y1))))) 
(and (or (<= (+ x1 0.3186473977) x13) (or (<= (+ x13 0.4966061613) x1) (or (>= (- y1 0.8827426891) y13) (or (>= (- y13 0.0338020348) y1))))) 
(and (or (<= (+ x1 0.3186473977) x14) (or (<= (+ x14 0.9439804456) x1) (or (>= (- y1 0.8827426891) y14) (or (>= (- y14 0.0199775779) y1))))) 
(and (or (<= (+ x2 0.0911714768) x3) (or (<= (+ x3 0.1829961401) x2) (or (>= (- y2 0.8134874405) y3) (or (>= (- y3 0.7227091456) y2))))) 
(and (or (<= (+ x2 0.0911714768) x4) (or (<= (+ x4 0.6987055435) x2) (or (>= (- y2 0.8134874405) y4) (or (>= (- y4 0.6907405815) y2))))) 
(and (or (<= (+ x2 0.0911714768) x5) (or (<= (+ x5 0.4717337751) x2) (or (>= (- y2 0.8134874405) y5) (or (>= (- y5 0.554745903) y2))))) 
(and (or (<= (+ x2 0.0911714768) x6) (or (<= (+ x6 0.0720154545) x2) (or (>= (- y2 0.8134874405) y6) (or (>= (- y6 0.4443920272) y2))))) 
(and (or (<= (+ x2 0.0911714768) x7) (or (<= (+ x7 0.3482728906) x2) (or (>= (- y2 0.8134874405) y7) (or (>= (- y7 0.3828827221) y2))))) 
(and (or (<= (+ x2 0.0911714768) x8) (or (<= (+ x8 0.4296715769) x2) (or (>= (- y2 0.8134874405) y8) (or (>= (- y8 0.3677670044) y2))))) 
(and (or (<= (+ x2 0.0911714768) x9) (or (<= (+ x9 0.0564388434) x2) (or (>= (- y2 0.8134874405) y9) (or (>= (- y9 0.3643801729) y2))))) 
(and (or (<= (+ x2 0.0911714768) x10) (or (<= (+ x10 0.3924183036) x2) (or (>= (- y2 0.8134874405) y10) (or (>= (- y10 0.2641453916) y2))))) 
(and (or (<= (+ x2 0.0911714768) x11) (or (<= (+ x11 0.573858188) x2) (or (>= (- y2 0.8134874405) y11) (or (>= (- y11 0.1534121314) y2))))) 
(and (or (<= (+ x2 0.0911714768) x12) (or (<= (+ x12 0.348140032) x2) (or (>= (- y2 0.8134874405) y12) (or (>= (- y12 0.1091890444) y2))))) 
(and (or (<= (+ x2 0.0911714768) x13) (or (<= (+ x13 0.4966061613) x2) (or (>= (- y2 0.8134874405) y13) (or (>= (- y13 0.0338020348) y2))))) 
(and (or (<= (+ x2 0.0911714768) x14) (or (<= (+ x14 0.9439804456) x2) (or (>= (- y2 0.8134874405) y14) (or (>= (- y14 0.0199775779) y2))))) 
(and (or (<= (+ x3 0.1829961401) x4) (or (<= (+ x4 0.6987055435) x3) (or (>= (- y3 0.7227091456) y4) (or (>= (- y4 0.6907405815) y3))))) 
(and (or (<= (+ x3 0.1829961401) x5) (or (<= (+ x5 0.4717337751) x3) (or (>= (- y3 0.7227091456) y5) (or (>= (- y5 0.554745903) y3))))) 
(and (or (<= (+ x3 0.1829961401) x6) (or (<= (+ x6 0.0720154545) x3) (or (>= (- y3 0.7227091456) y6) (or (>= (- y6 0.4443920272) y3))))) 
(and (or (<= (+ x3 0.1829961401) x7) (or (<= (+ x7 0.3482728906) x3) (or (>= (- y3 0.7227091456) y7) (or (>= (- y7 0.3828827221) y3))))) 
(and (or (<= (+ x3 0.1829961401) x8) (or (<= (+ x8 0.4296715769) x3) (or (>= (- y3 0.7227091456) y8) (or (>= (- y8 0.3677670044) y3))))) 
(and (or (<= (+ x3 0.1829961401) x9) (or (<= (+ x9 0.0564388434) x3) (or (>= (- y3 0.7227091456) y9) (or (>= (- y9 0.3643801729) y3))))) 
(and (or (<= (+ x3 0.1829961401) x10) (or (<= (+ x10 0.3924183036) x3) (or (>= (- y3 0.7227091456) y10) (or (>= (- y10 0.2641453916) y3))))) 
(and (or (<= (+ x3 0.1829961401) x11) (or (<= (+ x11 0.573858188) x3) (or (>= (- y3 0.7227091456) y11) (or (>= (- y11 0.1534121314) y3))))) 
(and (or (<= (+ x3 0.1829961401) x12) (or (<= (+ x12 0.348140032) x3) (or (>= (- y3 0.7227091456) y12) (or (>= (- y12 0.1091890444) y3))))) 
(and (or (<= (+ x3 0.1829961401) x13) (or (<= (+ x13 0.4966061613) x3) (or (>= (- y3 0.7227091456) y13) (or (>= (- y13 0.0338020348) y3))))) 
(and (or (<= (+ x3 0.1829961401) x14) (or (<= (+ x14 0.9439804456) x3) (or (>= (- y3 0.7227091456) y14) (or (>= (- y14 0.0199775779) y3))))) 
(and (or (<= (+ x4 0.6987055435) x5) (or (<= (+ x5 0.4717337751) x4) (or (>= (- y4 0.6907405815) y5) (or (>= (- y5 0.554745903) y4))))) 
(and (or (<= (+ x4 0.6987055435) x6) (or (<= (+ x6 0.0720154545) x4) (or (>= (- y4 0.6907405815) y6) (or (>= (- y6 0.4443920272) y4))))) 
(and (or (<= (+ x4 0.6987055435) x7) (or (<= (+ x7 0.3482728906) x4) (or (>= (- y4 0.6907405815) y7) (or (>= (- y7 0.3828827221) y4))))) 
(and (or (<= (+ x4 0.6987055435) x8) (or (<= (+ x8 0.4296715769) x4) (or (>= (- y4 0.6907405815) y8) (or (>= (- y8 0.3677670044) y4))))) 
(and (or (<= (+ x4 0.6987055435) x9) (or (<= (+ x9 0.0564388434) x4) (or (>= (- y4 0.6907405815) y9) (or (>= (- y9 0.3643801729) y4))))) 
(and (or (<= (+ x4 0.6987055435) x10) (or (<= (+ x10 0.3924183036) x4) (or (>= (- y4 0.6907405815) y10) (or (>= (- y10 0.2641453916) y4))))) 
(and (or (<= (+ x4 0.6987055435) x11) (or (<= (+ x11 0.573858188) x4) (or (>= (- y4 0.6907405815) y11) (or (>= (- y11 0.1534121314) y4))))) 
(and (or (<= (+ x4 0.6987055435) x12) (or (<= (+ x12 0.348140032) x4) (or (>= (- y4 0.6907405815) y12) (or (>= (- y12 0.1091890444) y4))))) 
(and (or (<= (+ x4 0.6987055435) x13) (or (<= (+ x13 0.4966061613) x4) (or (>= (- y4 0.6907405815) y13) (or (>= (- y13 0.0338020348) y4))))) 
(and (or (<= (+ x4 0.6987055435) x14) (or (<= (+ x14 0.9439804456) x4) (or (>= (- y4 0.6907405815) y14) (or (>= (- y14 0.0199775779) y4))))) 
(and (or (<= (+ x5 0.4717337751) x6) (or (<= (+ x6 0.0720154545) x5) (or (>= (- y5 0.554745903) y6) (or (>= (- y6 0.4443920272) y5))))) 
(and (or (<= (+ x5 0.4717337751) x7) (or (<= (+ x7 0.3482728906) x5) (or (>= (- y5 0.554745903) y7) (or (>= (- y7 0.3828827221) y5))))) 
(and (or (<= (+ x5 0.4717337751) x8) (or (<= (+ x8 0.4296715769) x5) (or (>= (- y5 0.554745903) y8) (or (>= (- y8 0.3677670044) y5))))) 
(and (or (<= (+ x5 0.4717337751) x9) (or (<= (+ x9 0.0564388434) x5) (or (>= (- y5 0.554745903) y9) (or (>= (- y9 0.3643801729) y5))))) 
(and (or (<= (+ x5 0.4717337751) x10) (or (<= (+ x10 0.3924183036) x5) (or (>= (- y5 0.554745903) y10) (or (>= (- y10 0.2641453916) y5))))) 
(and (or (<= (+ x5 0.4717337751) x11) (or (<= (+ x11 0.573858188) x5) (or (>= (- y5 0.554745903) y11) (or (>= (- y11 0.1534121314) y5))))) 
(and (or (<= (+ x5 0.4717337751) x12) (or (<= (+ x12 0.348140032) x5) (or (>= (- y5 0.554745903) y12) (or (>= (- y12 0.1091890444) y5))))) 
(and (or (<= (+ x5 0.4717337751) x13) (or (<= (+ x13 0.4966061613) x5) (or (>= (- y5 0.554745903) y13) (or (>= (- y13 0.0338020348) y5))))) 
(and (or (<= (+ x5 0.4717337751) x14) (or (<= (+ x14 0.9439804456) x5) (or (>= (- y5 0.554745903) y14) (or (>= (- y14 0.0199775779) y5))))) 
(and (or (<= (+ x6 0.0720154545) x7) (or (<= (+ x7 0.3482728906) x6) (or (>= (- y6 0.4443920272) y7) (or (>= (- y7 0.3828827221) y6))))) 
(and (or (<= (+ x6 0.0720154545) x8) (or (<= (+ x8 0.4296715769) x6) (or (>= (- y6 0.4443920272) y8) (or (>= (- y8 0.3677670044) y6))))) 
(and (or (<= (+ x6 0.0720154545) x9) (or (<= (+ x9 0.0564388434) x6) (or (>= (- y6 0.4443920272) y9) (or (>= (- y9 0.3643801729) y6))))) 
(and (or (<= (+ x6 0.0720154545) x10) (or (<= (+ x10 0.3924183036) x6) (or (>= (- y6 0.4443920272) y10) (or (>= (- y10 0.2641453916) y6))))) 
(and (or (<= (+ x6 0.0720154545) x11) (or (<= (+ x11 0.573858188) x6) (or (>= (- y6 0.4443920272) y11) (or (>= (- y11 0.1534121314) y6))))) 
(and (or (<= (+ x6 0.0720154545) x12) (or (<= (+ x12 0.348140032) x6) (or (>= (- y6 0.4443920272) y12) (or (>= (- y12 0.1091890444) y6))))) 
(and (or (<= (+ x6 0.0720154545) x13) (or (<= (+ x13 0.4966061613) x6) (or (>= (- y6 0.4443920272) y13) (or (>= (- y13 0.0338020348) y6))))) 
(and (or (<= (+ x6 0.0720154545) x14) (or (<= (+ x14 0.9439804456) x6) (or (>= (- y6 0.4443920272) y14) (or (>= (- y14 0.0199775779) y6))))) 
(and (or (<= (+ x7 0.3482728906) x8) (or (<= (+ x8 0.4296715769) x7) (or (>= (- y7 0.3828827221) y8) (or (>= (- y8 0.3677670044) y7))))) 
(and (or (<= (+ x7 0.3482728906) x9) (or (<= (+ x9 0.0564388434) x7) (or (>= (- y7 0.3828827221) y9) (or (>= (- y9 0.3643801729) y7))))) 
(and (or (<= (+ x7 0.3482728906) x10) (or (<= (+ x10 0.3924183036) x7) (or (>= (- y7 0.3828827221) y10) (or (>= (- y10 0.2641453916) y7))))) 
(and (or (<= (+ x7 0.3482728906) x11) (or (<= (+ x11 0.573858188) x7) (or (>= (- y7 0.3828827221) y11) (or (>= (- y11 0.1534121314) y7))))) 
(and (or (<= (+ x7 0.3482728906) x12) (or (<= (+ x12 0.348140032) x7) (or (>= (- y7 0.3828827221) y12) (or (>= (- y12 0.1091890444) y7))))) 
(and (or (<= (+ x7 0.3482728906) x13) (or (<= (+ x13 0.4966061613) x7) (or (>= (- y7 0.3828827221) y13) (or (>= (- y13 0.0338020348) y7))))) 
(and (or (<= (+ x7 0.3482728906) x14) (or (<= (+ x14 0.9439804456) x7) (or (>= (- y7 0.3828827221) y14) (or (>= (- y14 0.0199775779) y7))))) 
(and (or (<= (+ x8 0.4296715769) x9) (or (<= (+ x9 0.0564388434) x8) (or (>= (- y8 0.3677670044) y9) (or (>= (- y9 0.3643801729) y8))))) 
(and (or (<= (+ x8 0.4296715769) x10) (or (<= (+ x10 0.3924183036) x8) (or (>= (- y8 0.3677670044) y10) (or (>= (- y10 0.2641453916) y8))))) 
(and (or (<= (+ x8 0.4296715769) x11) (or (<= (+ x11 0.573858188) x8) (or (>= (- y8 0.3677670044) y11) (or (>= (- y11 0.1534121314) y8))))) 
(and (or (<= (+ x8 0.4296715769) x12) (or (<= (+ x12 0.348140032) x8) (or (>= (- y8 0.3677670044) y12) (or (>= (- y12 0.1091890444) y8))))) 
(and (or (<= (+ x8 0.4296715769) x13) (or (<= (+ x13 0.4966061613) x8) (or (>= (- y8 0.3677670044) y13) (or (>= (- y13 0.0338020348) y8))))) 
(and (or (<= (+ x8 0.4296715769) x14) (or (<= (+ x14 0.9439804456) x8) (or (>= (- y8 0.3677670044) y14) (or (>= (- y14 0.0199775779) y8))))) 
(and (or (<= (+ x9 0.0564388434) x10) (or (<= (+ x10 0.3924183036) x9) (or (>= (- y9 0.3643801729) y10) (or (>= (- y10 0.2641453916) y9))))) 
(and (or (<= (+ x9 0.0564388434) x11) (or (<= (+ x11 0.573858188) x9) (or (>= (- y9 0.3643801729) y11) (or (>= (- y11 0.1534121314) y9))))) 
(and (or (<= (+ x9 0.0564388434) x12) (or (<= (+ x12 0.348140032) x9) (or (>= (- y9 0.3643801729) y12) (or (>= (- y12 0.1091890444) y9))))) 
(and (or (<= (+ x9 0.0564388434) x13) (or (<= (+ x13 0.4966061613) x9) (or (>= (- y9 0.3643801729) y13) (or (>= (- y13 0.0338020348) y9))))) 
(and (or (<= (+ x9 0.0564388434) x14) (or (<= (+ x14 0.9439804456) x9) (or (>= (- y9 0.3643801729) y14) (or (>= (- y14 0.0199775779) y9))))) 
(and (or (<= (+ x10 0.3924183036) x11) (or (<= (+ x11 0.573858188) x10) (or (>= (- y10 0.2641453916) y11) (or (>= (- y11 0.1534121314) y10))))) 
(and (or (<= (+ x10 0.3924183036) x12) (or (<= (+ x12 0.348140032) x10) (or (>= (- y10 0.2641453916) y12) (or (>= (- y12 0.1091890444) y10))))) 
(and (or (<= (+ x10 0.3924183036) x13) (or (<= (+ x13 0.4966061613) x10) (or (>= (- y10 0.2641453916) y13) (or (>= (- y13 0.0338020348) y10))))) 
(and (or (<= (+ x10 0.3924183036) x14) (or (<= (+ x14 0.9439804456) x10) (or (>= (- y10 0.2641453916) y14) (or (>= (- y14 0.0199775779) y10))))) 
(and (or (<= (+ x11 0.573858188) x12) (or (<= (+ x12 0.348140032) x11) (or (>= (- y11 0.1534121314) y12) (or (>= (- y12 0.1091890444) y11))))) 
(and (or (<= (+ x11 0.573858188) x13) (or (<= (+ x13 0.4966061613) x11) (or (>= (- y11 0.1534121314) y13) (or (>= (- y13 0.0338020348) y11))))) 
(and (or (<= (+ x11 0.573858188) x14) (or (<= (+ x14 0.9439804456) x11) (or (>= (- y11 0.1534121314) y14) (or (>= (- y14 0.0199775779) y11))))) 
(and (or (<= (+ x12 0.348140032) x13) (or (<= (+ x13 0.4966061613) x12) (or (>= (- y12 0.1091890444) y13) (or (>= (- y13 0.0338020348) y12))))) 
(and (or (<= (+ x12 0.348140032) x14) (or (<= (+ x14 0.9439804456) x12) (or (>= (- y12 0.1091890444) y14) (or (>= (- y14 0.0199775779) y12))))) 
(and (or (<= (+ x13 0.4966061613) x14) (or (<= (+ x14 0.9439804456) x13) (or (>= (- y13 0.0338020348) y14) (or (>= (- y14 0.0199775779) y13))))) )))))))))))))))))))))))))))))))))))))))))))))))))))))))))))))))))))))))))))))))))))))))))))))))))))))))))))))))))))))))))))))))))))))))))))))))))))))))))))))))))))))))))))))))))))))))))))))))))))))))))))))))))))))))
(minimize c)
(check-sat)
(get-objectives)
(exit)
